benchmarks_CP/INST_49x49/40/inst49x49_40_98.dzn
S=7;
start=[|
-1,	11,	-1,	-1,	-1,	29,	-1,	35,	-1,	49,	-1,	-1,	-1,	-1,	-1,	-1,	-1,	-1,	-1,	17,	-1,	-1,	-1,	-1,	-1,	44,	-1,	-1,	-1,	-1,	39,	-1,	3,	22,	-1,	-1,	-1,	-1,	-1,	30,	31,	7,	-1,	-1,	-1,	26,	-1,	-1,	-1|
17,	-1,	23,	15,	-1,	18,	-1,	-1,	-1,	-1,	-1,	-1,	-1,	3,	39,	-1,	48,	16,	12,	-1,	20,	5,	-1,	-1,	-1,	19,	-1,	-1,	46,	21,	-1,	28,	-1,	-1,	-1,	-1,	-1,	-1,	-1,	-1,	-1,	-1,	-1,	-1,	8,	-1,	-1,	7,	-1|
-1,	48,	-1,	38,	46,	-1,	44,	10,	8,	36,	15,	-1,	12,	-1,	-1,	-1,	-1,	1,	-1,	7,	-1,	-1,	-1,	-1,	41,	25,	22,	20,	23,	42,	33,	14,	43,	24,	-1,	-1,	-1,	-1,	-1,	-1,	-1,	3,	-1,	29,	-1,	47,	-1,	-1,	-1|
31,	-1,	39,	6,	-1,	30,	-1,	16,	-1,	1,	-1,	-1,	21,	-1,	42,	46,	-1,	29,	37,	-1,	-1,	8,	-1,	28,	49,	-1,	2,	13,	47,	-1,	-1,	19,	40,	-1,	25,	-1,	-1,	-1,	24,	-1,	-1,	-1,	-1,	-1,	9,	-1,	-1,	35,	-1|
-1,	25,	27,	-1,	-1,	-1,	33,	-1,	-1,	4,	-1,	39,	14,	2,	-1,	-1,	-1,	-1,	47,	5,	22,	-1,	36,	-1,	10,	-1,	-1,	34,	1,	29,	6,	-1,	31,	-1,	-1,	46,	38,	-1,	-1,	-1,	-1,	-1,	11,	-1,	3,	-1,	15,	20,	-1|
-1,	47,	28,	-1,	9,	-1,	19,	-1,	7,	40,	-1,	-1,	-1,	33,	14,	-1,	38,	-1,	-1,	-1,	27,	31,	-1,	-1,	3,	1,	46,	-1,	35,	-1,	-1,	-1,	15,	-1,	-1,	39,	-1,	-1,	-1,	-1,	12,	-1,	-1,	-1,	-1,	4,	-1,	-1,	-1|
4,	20,	-1,	40,	-1,	-1,	22,	-1,	-1,	-1,	-1,	28,	19,	-1,	-1,	-1,	3,	-1,	23,	-1,	41,	-1,	38,	-1,	-1,	-1,	-1,	-1,	-1,	7,	-1,	-1,	13,	37,	17,	5,	-1,	-1,	-1,	9,	-1,	-1,	-1,	-1,	1,	34,	42,	14,	46|
-1,	-1,	-1,	11,	12,	-1,	8,	-1,	-1,	-1,	-1,	-1,	-1,	-1,	-1,	-1,	-1,	25,	16,	-1,	-1,	-1,	-1,	14,	-1,	20,	-1,	1,	40,	-1,	-1,	13,	45,	-1,	-1,	-1,	-1,	-1,	7,	-1,	-1,	-1,	28,	-1,	-1,	-1,	-1,	-1,	43|
7,	23,	42,	32,	-1,	-1,	-1,	-1,	-1,	-1,	31,	-1,	-1,	-1,	5,	11,	1,	-1,	-1,	3,	-1,	10,	-1,	-1,	37,	-1,	38,	36,	-1,	30,	15,	20,	47,	-1,	19,	27,	6,	33,	8,	-1,	-1,	16,	35,	-1,	45,	46,	-1,	-1,	29|
3,	39,	26,	-1,	-1,	22,	-1,	4,	-1,	-1,	33,	-1,	-1,	-1,	-1,	-1,	7,	-1,	-1,	28,	-1,	-1,	-1,	12,	-1,	-1,	11,	-1,	36,	-1,	-1,	-1,	-1,	42,	-1,	-1,	31,	-1,	19,	2,	46,	-1,	-1,	-1,	-1,	18,	-1,	-1,	-1|
43,	-1,	-1,	5,	-1,	-1,	-1,	30,	-1,	16,	36,	7,	-1,	45,	34,	-1,	-1,	35,	-1,	-1,	-1,	-1,	19,	18,	-1,	39,	-1,	-1,	-1,	-1,	27,	-1,	-1,	-1,	-1,	-1,	21,	-1,	-1,	23,	-1,	-1,	42,	-1,	25,	-1,	-1,	-1,	-1|
-1,	-1,	30,	27,	48,	-1,	-1,	47,	-1,	-1,	-1,	24,	-1,	10,	-1,	-1,	31,	-1,	-1,	-1,	36,	-1,	-1,	7,	-1,	22,	16,	-1,	-1,	-1,	35,	23,	-1,	-1,	5,	28,	-1,	-1,	-1,	-1,	-1,	-1,	20,	-1,	40,	-1,	33,	-1,	37|
-1,	36,	-1,	-1,	25,	-1,	45,	-1,	-1,	-1,	-1,	-1,	1,	41,	-1,	-1,	-1,	47,	27,	-1,	-1,	-1,	42,	-1,	43,	34,	-1,	29,	-1,	46,	-1,	-1,	26,	28,	31,	35,	-1,	-1,	37,	32,	-1,	-1,	19,	8,	6,	-1,	9,	-1,	-1|
47,	-1,	-1,	24,	-1,	-1,	-1,	-1,	-1,	35,	-1,	-1,	27,	28,	46,	13,	-1,	-1,	-1,	-1,	-1,	33,	-1,	-1,	-1,	-1,	-1,	-1,	-1,	-1,	-1,	-1,	-1,	-1,	-1,	-1,	-1,	-1,	-1,	-1,	18,	11,	23,	4,	-1,	12,	-1,	-1,	-1|
15,	-1,	46,	-1,	-1,	14,	-1,	32,	20,	34,	-1,	-1,	7,	-1,	-1,	-1,	42,	-1,	9,	-1,	-1,	-1,	33,	-1,	-1,	-1,	44,	-1,	8,	3,	-1,	39,	24,	-1,	4,	48,	23,	17,	18,	-1,	-1,	35,	45,	-1,	-1,	-1,	-1,	-1,	47|
-1,	21,	-1,	-1,	36,	-1,	-1,	-1,	35,	-1,	28,	15,	48,	38,	-1,	16,	-1,	-1,	-1,	-1,	-1,	27,	-1,	-1,	12,	42,	-1,	-1,	2,	-1,	-1,	-1,	18,	-1,	-1,	26,	-1,	-1,	-1,	45,	19,	-1,	-1,	-1,	-1,	-1,	24,	-1,	-1|
-1,	8,	-1,	-1,	-1,	-1,	-1,	-1,	-1,	-1,	-1,	42,	-1,	-1,	20,	-1,	49,	48,	-1,	-1,	-1,	-1,	-1,	-1,	-1,	24,	25,	19,	-1,	-1,	-1,	-1,	6,	-1,	-1,	7,	37,	-1,	3,	-1,	4,	9,	-1,	-1,	-1,	-1,	-1,	39,	22|
35,	-1,	9,	10,	-1,	-1,	-1,	-1,	-1,	14,	-1,	45,	23,	49,	27,	-1,	15,	22,	40,	47,	8,	-1,	-1,	-1,	-1,	-1,	-1,	17,	21,	-1,	13,	42,	19,	-1,	28,	-1,	-1,	24,	-1,	39,	38,	-1,	-1,	-1,	-1,	-1,	-1,	2,	-1|
42,	-1,	-1,	-1,	19,	-1,	-1,	-1,	39,	-1,	-1,	37,	47,	-1,	23,	38,	-1,	-1,	-1,	32,	-1,	30,	-1,	21,	45,	-1,	20,	-1,	-1,	-1,	31,	-1,	14,	7,	-1,	-1,	41,	27,	-1,	-1,	-1,	-1,	-1,	-1,	-1,	-1,	-1,	12,	44|
-1,	27,	-1,	-1,	-1,	-1,	5,	-1,	-1,	13,	44,	9,	-1,	-1,	-1,	-1,	-1,	-1,	-1,	45,	-1,	-1,	-1,	-1,	23,	14,	35,	-1,	-1,	-1,	-1,	17,	-1,	-1,	-1,	-1,	11,	34,	-1,	8,	-1,	-1,	-1,	-1,	-1,	-1,	-1,	-1,	41|
-1,	-1,	-1,	-1,	-1,	-1,	-1,	-1,	24,	-1,	-1,	46,	-1,	-1,	-1,	19,	35,	-1,	5,	-1,	33,	-1,	-1,	-1,	22,	15,	-1,	-1,	30,	-1,	-1,	12,	-1,	9,	-1,	-1,	-1,	43,	-1,	6,	20,	-1,	-1,	-1,	-1,	21,	10,	-1,	-1|
-1,	-1,	-1,	-1,	-1,	3,	-1,	-1,	47,	-1,	13,	4,	-1,	-1,	33,	-1,	22,	-1,	-1,	-1,	-1,	-1,	35,	19,	-1,	-1,	12,	-1,	28,	-1,	-1,	-1,	-1,	10,	-1,	18,	32,	-1,	30,	-1,	25,	-1,	-1,	39,	-1,	-1,	-1,	45,	-1|
-1,	12,	-1,	-1,	-1,	-1,	25,	-1,	-1,	-1,	-1,	-1,	34,	-1,	-1,	-1,	-1,	-1,	20,	27,	16,	11,	26,	2,	-1,	-1,	23,	24,	3,	32,	47,	-1,	-1,	35,	-1,	-1,	-1,	40,	-1,	-1,	-1,	39,	-1,	-1,	4,	-1,	-1,	22,	15|
-1,	-1,	32,	-1,	11,	-1,	-1,	40,	43,	-1,	-1,	33,	-1,	-1,	4,	-1,	-1,	-1,	-1,	-1,	-1,	34,	16,	-1,	-1,	-1,	-1,	47,	-1,	-1,	-1,	-1,	27,	6,	-1,	-1,	42,	14,	-1,	-1,	-1,	-1,	-1,	-1,	-1,	48,	-1,	3,	18|
-1,	-1,	-1,	43,	5,	-1,	-1,	-1,	-1,	-1,	19,	-1,	22,	-1,	47,	-1,	21,	14,	-1,	10,	42,	36,	49,	-1,	18,	27,	-1,	-1,	-1,	-1,	-1,	37,	44,	40,	-1,	-1,	-1,	-1,	-1,	-1,	-1,	-1,	-1,	23,	41,	11,	-1,	-1,	-1|
-1,	-1,	-1,	-1,	-1,	-1,	39,	31,	-1,	-1,	18,	26,	-1,	25,	35,	3,	-1,	-1,	38,	-1,	40,	-1,	-1,	-1,	4,	46,	-1,	-1,	-1,	-1,	7,	-1,	-1,	-1,	-1,	-1,	9,	47,	6,	-1,	-1,	-1,	27,	20,	16,	33,	43,	42,	-1|
18,	-1,	1,	9,	-1,	-1,	47,	2,	-1,	-1,	-1,	8,	-1,	-1,	-1,	30,	12,	-1,	24,	-1,	-1,	3,	43,	-1,	-1,	-1,	39,	-1,	-1,	-1,	-1,	15,	-1,	-1,	-1,	-1,	26,	-1,	48,	-1,	-1,	37,	25,	-1,	10,	-1,	36,	-1,	6|
22,	-1,	-1,	-1,	7,	27,	2,	49,	6,	45,	-1,	-1,	42,	24,	18,	-1,	39,	-1,	-1,	13,	48,	20,	-1,	-1,	28,	21,	9,	44,	17,	-1,	30,	-1,	-1,	-1,	-1,	-1,	-1,	-1,	-1,	36,	-1,	-1,	-1,	-1,	-1,	32,	38,	-1,	-1|
-1,	-1,	-1,	-1,	-1,	-1,	-1,	-1,	-1,	-1,	-1,	16,	28,	20,	-1,	-1,	-1,	45,	6,	2,	-1,	12,	31,	40,	-1,	-1,	49,	-1,	25,	11,	5,	-1,	30,	-1,	8,	-1,	27,	-1,	17,	47,	-1,	18,	29,	-1,	42,	10,	-1,	13,	26|
-1,	-1,	48,	2,	32,	-1,	-1,	-1,	-1,	-1,	-1,	-1,	-1,	-1,	1,	-1,	-1,	38,	-1,	-1,	-1,	17,	6,	10,	24,	-1,	36,	35,	-1,	43,	-1,	-1,	7,	-1,	-1,	-1,	-1,	4,	13,	26,	-1,	25,	-1,	-1,	5,	-1,	8,	21,	45|
12,	-1,	-1,	8,	30,	9,	-1,	25,	-1,	44,	-1,	-1,	-1,	5,	-1,	-1,	-1,	13,	-1,	19,	-1,	-1,	11,	26,	46,	-1,	-1,	-1,	-1,	17,	-1,	24,	36,	-1,	1,	-1,	33,	-1,	38,	10,	34,	48,	18,	7,	43,	16,	-1,	-1,	-1|
-1,	-1,	14,	-1,	33,	20,	3,	-1,	41,	39,	-1,	36,	4,	30,	-1,	15,	27,	-1,	8,	-1,	7,	21,	44,	1,	25,	48,	18,	22,	-1,	9,	-1,	-1,	-1,	-1,	-1,	43,	45,	-1,	-1,	35,	16,	31,	-1,	12,	11,	-1,	-1,	-1,	28|
-1,	15,	-1,	31,	-1,	-1,	-1,	9,	-1,	43,	17,	-1,	-1,	-1,	-1,	-1,	16,	4,	-1,	-1,	46,	-1,	27,	-1,	19,	5,	-1,	-1,	-1,	44,	2,	34,	-1,	3,	42,	24,	36,	-1,	-1,	-1,	11,	12,	-1,	22,	38,	35,	47,	48,	-1|
23,	1,	49,	-1,	-1,	17,	28,	-1,	-1,	27,	8,	-1,	15,	-1,	41,	-1,	25,	-1,	-1,	12,	-1,	13,	-1,	34,	-1,	-1,	-1,	-1,	-1,	10,	-1,	40,	-1,	-1,	-1,	-1,	39,	19,	-1,	-1,	-1,	-1,	-1,	-1,	-1,	31,	-1,	-1,	9|
11,	26,	-1,	-1,	22,	-1,	43,	-1,	31,	2,	-1,	-1,	-1,	-1,	21,	-1,	-1,	-1,	-1,	-1,	-1,	-1,	-1,	15,	20,	45,	41,	-1,	-1,	35,	-1,	27,	-1,	-1,	-1,	-1,	14,	-1,	-1,	-1,	-1,	-1,	32,	-1,	-1,	-1,	-1,	25,	3|
-1,	-1,	-1,	-1,	-1,	-1,	1,	-1,	45,	-1,	-1,	-1,	-1,	19,	6,	-1,	-1,	40,	-1,	-1,	32,	49,	22,	-1,	35,	-1,	-1,	39,	-1,	-1,	16,	-1,	28,	-1,	-1,	-1,	-1,	-1,	-1,	-1,	-1,	-1,	-1,	9,	44,	8,	31,	-1,	2|
-1,	-1,	-1,	44,	-1,	-1,	-1,	-1,	-1,	9,	-1,	-1,	-1,	-1,	-1,	45,	34,	-1,	-1,	-1,	-1,	-1,	-1,	-1,	-1,	-1,	-1,	-1,	-1,	-1,	14,	-1,	-1,	-1,	-1,	13,	46,	21,	-1,	-1,	23,	22,	-1,	-1,	-1,	42,	20,	-1,	49|
36,	-1,	-1,	-1,	-1,	-1,	49,	43,	-1,	17,	-1,	-1,	-1,	39,	-1,	-1,	-1,	27,	-1,	-1,	31,	-1,	-1,	-1,	9,	-1,	40,	-1,	6,	34,	8,	-1,	-1,	-1,	-1,	37,	-1,	28,	-1,	1,	-1,	44,	10,	-1,	-1,	5,	-1,	-1,	-1|
-1,	-1,	-1,	34,	2,	-1,	-1,	48,	28,	6,	-1,	-1,	-1,	27,	-1,	-1,	5,	-1,	30,	-1,	-1,	44,	-1,	-1,	-1,	-1,	8,	14,	19,	-1,	-1,	47,	-1,	-1,	-1,	32,	-1,	-1,	-1,	-1,	45,	-1,	-1,	35,	-1,	7,	-1,	46,	-1|
-1,	-1,	-1,	-1,	-1,	40,	35,	-1,	2,	-1,	20,	-1,	-1,	-1,	43,	12,	-1,	-1,	18,	-1,	-1,	-1,	-1,	-1,	11,	-1,	3,	45,	42,	-1,	41,	-1,	-1,	-1,	-1,	-1,	-1,	-1,	4,	-1,	-1,	-1,	1,	-1,	-1,	-1,	25,	34,	19|
30,	-1,	47,	-1,	-1,	-1,	-1,	15,	40,	-1,	1,	-1,	-1,	-1,	-1,	-1,	-1,	-1,	-1,	-1,	-1,	-1,	-1,	20,	-1,	-1,	-1,	-1,	-1,	-1,	12,	-1,	-1,	46,	24,	34,	19,	-1,	16,	-1,	-1,	-1,	39,	6,	-1,	14,	32,	-1,	38|
45,	-1,	8,	-1,	6,	-1,	-1,	-1,	16,	-1,	-1,	18,	-1,	21,	-1,	28,	19,	-1,	-1,	1,	-1,	29,	15,	13,	-1,	30,	-1,	-1,	-1,	39,	-1,	-1,	35,	-1,	44,	-1,	-1,	-1,	-1,	27,	36,	43,	-1,	-1,	37,	-1,	-1,	-1,	4|
-1,	33,	44,	-1,	-1,	-1,	-1,	-1,	-1,	-1,	-1,	49,	-1,	-1,	-1,	27,	-1,	19,	42,	-1,	-1,	-1,	-1,	-1,	-1,	-1,	-1,	-1,	32,	-1,	46,	-1,	23,	-1,	30,	-1,	16,	-1,	-1,	28,	-1,	-1,	-1,	14,	-1,	-1,	-1,	-1,	-1|
-1,	-1,	29,	-1,	-1,	-1,	27,	45,	-1,	-1,	-1,	-1,	6,	-1,	15,	22,	-1,	33,	13,	-1,	-1,	43,	-1,	44,	7,	37,	47,	16,	-1,	5,	-1,	-1,	-1,	-1,	-1,	-1,	-1,	46,	32,	-1,	49,	-1,	24,	-1,	-1,	-1,	-1,	-1,	-1|
37,	-1,	13,	-1,	14,	28,	31,	-1,	-1,	-1,	-1,	-1,	-1,	34,	11,	43,	45,	-1,	-1,	-1,	25,	-1,	-1,	-1,	21,	23,	-1,	-1,	-1,	-1,	-1,	26,	10,	44,	2,	17,	35,	-1,	-1,	42,	1,	47,	5,	49,	7,	6,	-1,	-1,	-1|
1,	-1,	43,	-1,	-1,	19,	9,	38,	-1,	-1,	5,	27,	-1,	32,	37,	8,	-1,	12,	-1,	-1,	-1,	-1,	-1,	-1,	-1,	49,	45,	-1,	20,	-1,	40,	-1,	-1,	36,	-1,	14,	25,	26,	39,	24,	-1,	-1,	47,	31,	18,	13,	11,	-1,	48|
38,	49,	-1,	-1,	45,	-1,	36,	-1,	9,	-1,	-1,	-1,	-1,	-1,	-1,	7,	-1,	-1,	1,	-1,	-1,	-1,	28,	46,	-1,	35,	-1,	-1,	27,	12,	-1,	31,	-1,	-1,	37,	21,	-1,	-1,	29,	-1,	8,	-1,	-1,	-1,	-1,	-1,	-1,	4,	39|
-1,	-1,	40,	16,	4,	-1,	23,	1,	17,	-1,	-1,	-1,	-1,	-1,	-1,	-1,	-1,	-1,	-1,	-1,	-1,	41,	-1,	42,	27,	36,	14,	18,	-1,	28,	24,	-1,	-1,	8,	13,	-1,	20,	-1,	-1,	-1,	-1,	19,	26,	25,	46,	45,	29,	32,	-1|
5,	-1,	-1,	48,	39,	-1,	-1,	-1,	21,	-1,	-1,	-1,	33,	31,	-1,	-1,	-1,	-1,	-1,	-1,	24,	-1,	10,	-1,	-1,	40,	-1,	-1,	-1,	-1,	-1,	6,	-1,	34,	35,	41,	13,	-1,	45,	3,	-1,	-1,	-1,	43,	17,	-1,	-1,	1,	-1|];
