sudoku-ls/benchmarks_LEQ/INST_49x49/40/inst49x49_40_98.txt
7
1
-1	-1	36	12	-1	-1	-1	35	-1	49	45	-1	32	-1	19	-1	8	24	-1	17	-1	-1	-1	-1	-1	44	-1	-1	-1	-1	39	-1	-1	22	-1	-1	18	-1	-1	30	-1	-1	13	-1	28	-1	37	-1	25
-1	13	23	15	-1	-1	-1	37	29	24	25	41	-1	-1	39	-1	-1	-1	-1	43	20	-1	-1	-1	-1	-1	-1	-1	-1	-1	36	28	34	-1	-1	1	-1	6	-1	11	14	-1	-1	-1	8	-1	-1	7	-1
-1	-1	-1	-1	46	5	-1	-1	-1	36	-1	-1	12	-1	-1	-1	-1	-1	-1	-1	45	-1	9	35	-1	-1	22	20	-1	-1	-1	-1	-1	24	-1	-1	-1	16	27	-1	-1	-1	-1	-1	39	-1	21	6	30
31	-1	-1	-1	3	30	-1	-1	5	1	-1	-1	-1	22	-1	46	-1	29	37	15	26	8	-1	-1	-1	-1	2	-1	-1	-1	-1	19	-1	-1	-1	-1	-1	-1	24	-1	-1	41	-1	-1	9	-1	17	-1	12
32	25	27	7	-1	8	-1	-1	23	4	-1	-1	-1	-1	40	-1	-1	44	-1	-1	-1	-1	36	16	-1	-1	42	-1	1	-1	-1	-1	-1	-1	12	-1	-1	-1	-1	37	-1	-1	-1	-1	3	19	-1	20	-1
-1	-1	28	42	9	-1	-1	-1	7	-1	6	17	-1	33	-1	-1	38	-1	-1	11	-1	31	-1	-1	-1	1	46	43	-1	8	-1	-1	-1	-1	-1	-1	-1	13	-1	25	12	49	41	45	-1	-1	48	5	32
4	-1	-1	-1	43	-1	22	-1	-1	48	27	28	-1	47	-1	6	3	-1	23	25	41	-1	-1	-1	-1	12	21	11	-1	-1	32	-1	13	-1	17	5	-1	45	-1	-1	-1	-1	36	16	-1	34	42	-1	-1
-1	35	33	11	12	-1	8	-1	-1	5	26	-1	-1	17	-1	-1	-1	25	-1	-1	-1	23	-1	-1	-1	-1	-1	-1	40	22	-1	-1	45	48	10	36	49	-1	-1	38	41	4	-1	-1	-1	-1	-1	-1	43
-1	23	-1	-1	-1	-1	40	-1	49	18	31	48	9	-1	5	-1	-1	-1	-1	3	43	-1	25	-1	-1	-1	38	-1	-1	-1	-1	-1	-1	-1	19	27	6	33	8	-1	26	-1	35	-1	-1	46	22	41	29
3	-1	-1	1	16	-1	-1	-1	-1	-1	33	-1	-1	-1	-1	-1	-1	-1	-1	-1	-1	35	-1	-1	40	47	11	27	-1	6	-1	44	-1	-1	21	45	-1	-1	-1	2	46	17	48	32	-1	-1	-1	-1	13
43	37	-1	-1	-1	-1	-1	-1	11	16	-1	-1	20	-1	-1	-1	14	35	-1	-1	-1	-1	19	18	-1	-1	13	-1	-1	-1	27	32	8	-1	-1	12	-1	1	9	-1	-1	24	-1	-1	-1	-1	-1	-1	-1
-1	18	-1	-1	48	2	-1	-1	-1	46	-1	24	-1	-1	-1	26	-1	-1	-1	-1	-1	9	-1	7	-1	-1	-1	-1	12	-1	-1	23	-1	-1	-1	28	43	15	-1	29	42	-1	20	-1	-1	39	33	-1	37
14	36	4	-1	-1	-1	-1	-1	44	-1	40	13	-1	-1	-1	-1	18	-1	-1	-1	-1	2	42	-1	-1	-1	48	-1	11	46	-1	-1	-1	-1	-1	-1	-1	22	-1	-1	-1	20	19	-1	-1	-1	-1	-1	-1
-1	-1	-1	-1	-1	-1	-1	-1	-1	35	42	-1	27	-1	-1	13	-1	20	19	-1	44	-1	-1	-1	-1	-1	26	-1	-1	37	17	-1	-1	16	7	-1	-1	3	14	-1	-1	-1	-1	-1	36	-1	1	38	-1
-1	22	46	-1	-1	-1	41	32	-1	-1	-1	19	7	6	-1	21	42	-1	9	-1	-1	40	33	11	-1	-1	44	28	8	-1	-1	-1	-1	38	-1	-1	-1	-1	-1	-1	2	-1	-1	5	-1	1	27	49	47
-1	21	3	30	-1	47	-1	8	-1	-1	28	-1	48	-1	-1	16	4	17	44	-1	-1	-1	41	-1	12	-1	43	-1	-1	-1	29	33	-1	5	-1	26	-1	49	-1	45	19	-1	46	-1	32	25	-1	9	23
-1	-1	17	-1	29	-1	-1	-1	-1	31	-1	-1	41	-1	-1	-1	-1	48	-1	-1	2	-1	34	-1	5	-1	25	-1	15	-1	45	43	6	-1	-1	7	37	-1	3	44	-1	9	30	-1	35	38	28	-1	-1
-1	43	9	10	44	-1	48	5	-1	14	-1	45	-1	-1	27	-1	-1	-1	-1	-1	-1	32	46	3	-1	26	1	17	21	41	13	42	19	-1	-1	33	-1	24	31	-1	38	36	-1	-1	20	37	-1	-1	16
-1	-1	-1	-1	-1	-1	-1	-1	-1	33	-1	-1	47	-1	-1	38	-1	34	3	-1	-1	30	-1	-1	-1	9	-1	-1	-1	-1	31	-1	14	7	48	-1	-1	27	-1	13	-1	-1	43	17	26	-1	-1	12	-1
-1	-1	-1	18	-1	6	-1	29	-1	-1	-1	-1	36	-1	10	39	24	-1	25	-1	28	16	2	48	-1	-1	35	7	-1	26	-1	17	32	-1	-1	-1	11	34	46	8	-1	21	-1	-1	-1	3	-1	-1	41
34	-1	-1	45	-1	-1	7	-1	-1	-1	-1	-1	-1	40	31	-1	35	-1	5	26	-1	-1	-1	38	22	15	-1	37	-1	-1	-1	12	-1	-1	27	-1	1	43	-1	6	20	28	8	42	-1	-1	10	-1	14
26	-1	20	-1	40	-1	-1	-1	47	41	-1	-1	37	15	33	49	-1	-1	31	-1	17	-1	-1	19	-1	29	12	-1	28	-1	-1	-1	1	-1	36	-1	-1	11	30	-1	-1	-1	-1	-1	-1	-1	-1	45	-1
-1	-1	-1	13	-1	-1	-1	-1	36	-1	-1	-1	-1	9	-1	1	-1	-1	-1	27	16	-1	-1	2	38	-1	-1	-1	3	32	47	-1	-1	35	43	44	-1	-1	-1	17	-1	-1	-1	-1	-1	-1	-1	-1	15
-1	-1	-1	-1	-1	-1	-1	-1	43	20	39	-1	-1	-1	-1	-1	-1	-1	-1	36	19	34	-1	-1	-1	-1	5	47	-1	45	-1	-1	-1	-1	41	31	42	-1	10	-1	-1	-1	2	-1	-1	-1	-1	-1	-1
-1	-1	-1	43	5	-1	4	28	1	3	19	12	-1	-1	47	32	-1	14	29	-1	-1	-1	-1	-1	-1	27	-1	-1	-1	-1	-1	-1	44	40	-1	-1	7	38	-1	-1	-1	45	-1	23	-1	-1	-1	-1	8
29	-1	-1	36	-1	-1	-1	-1	30	-1	18	-1	-1	-1	35	3	-1	2	38	-1	-1	14	-1	-1	-1	46	-1	10	-1	19	7	-1	-1	13	23	-1	-1	-1	-1	5	-1	-1	27	20	-1	-1	-1	-1	-1
-1	-1	-1	-1	-1	31	-1	2	-1	-1	-1	-1	-1	-1	-1	-1	-1	-1	-1	41	-1	3	43	-1	-1	-1	-1	42	-1	20	4	-1	21	-1	-1	-1	26	-1	48	22	-1	-1	-1	-1	-1	-1	-1	29	6
22	-1	41	-1	7	-1	-1	49	-1	45	-1	5	42	24	-1	37	39	-1	43	13	48	-1	-1	-1	-1	21	-1	-1	17	-1	-1	-1	-1	33	29	16	-1	-1	-1	-1	-1	-1	-1	26	19	-1	38	-1	-1
44	-1	24	46	-1	-1	34	-1	-1	21	-1	16	-1	20	-1	-1	43	-1	-1	-1	-1	12	31	-1	-1	33	49	23	25	-1	-1	4	-1	19	-1	15	-1	-1	-1	47	37	18	-1	-1	-1	-1	39	13	26
-1	19	-1	2	-1	16	-1	42	-1	12	-1	-1	-1	-1	1	-1	-1	-1	34	-1	-1	-1	6	-1	24	3	-1	-1	-1	43	49	46	7	39	22	-1	-1	-1	13	-1	28	-1	15	-1	5	-1	8	-1	-1
-1	-1	-1	8	30	-1	37	-1	-1	-1	-1	-1	-1	5	-1	-1	-1	-1	-1	19	23	-1	-1	-1	-1	-1	-1	-1	-1	-1	21	24	-1	15	1	20	-1	-1	-1	-1	-1	-1	-1	-1	-1	-1	-1	27	-1
10	-1	-1	-1	33	-1	-1	-1	-1	-1	-1	36	-1	30	26	-1	27	-1	8	-1	7	21	-1	-1	-1	48	-1	22	-1	9	-1	29	-1	-1	-1	-1	45	-1	2	35	-1	-1	34	12	11	17	-1	24	-1
40	-1	-1	-1	-1	-1	21	-1	26	-1	17	1	-1	-1	-1	-1	-1	4	-1	-1	46	-1	-1	-1	-1	-1	28	-1	33	-1	2	34	-1	3	-1	-1	36	29	23	-1	-1	-1	14	-1	38	-1	-1	-1	20
-1	1	49	4	-1	-1	-1	24	-1	-1	-1	11	15	46	-1	33	25	42	-1	-1	29	-1	-1	-1	-1	-1	7	-1	-1	-1	-1	-1	-1	-1	47	3	39	-1	-1	-1	5	-1	-1	-1	30	-1	-1	-1	9
-1	26	-1	-1	22	38	-1	-1	-1	2	37	-1	-1	-1	21	5	36	49	17	-1	-1	42	47	15	-1	45	-1	9	18	35	-1	-1	48	-1	16	-1	-1	-1	1	46	6	40	-1	-1	-1	23	-1	-1	-1
-1	-1	5	-1	15	-1	1	7	-1	42	11	-1	-1	-1	-1	-1	-1	40	46	-1	-1	-1	22	23	35	-1	27	-1	26	-1	-1	-1	28	21	3	30	-1	-1	-1	-1	-1	-1	17	9	-1	8	31	18	-1
-1	4	-1	-1	-1	-1	-1	-1	-1	-1	41	-1	-1	12	-1	-1	34	11	48	-1	-1	25	-1	-1	-1	-1	-1	33	7	-1	-1	-1	-1	43	40	-1	-1	-1	-1	-1	-1	-1	16	-1	-1	-1	20	28	-1
-1	38	-1	19	20	33	49	43	-1	17	46	25	26	-1	-1	-1	-1	-1	15	-1	-1	-1	-1	47	9	-1	40	12	-1	-1	8	22	-1	18	32	37	-1	-1	42	-1	-1	-1	10	-1	-1	-1	45	-1	-1
-1	-1	22	-1	2	-1	17	48	-1	-1	-1	-1	-1	27	36	-1	5	-1	-1	-1	39	44	-1	43	-1	16	8	14	19	-1	-1	-1	37	31	-1	-1	-1	-1	-1	40	-1	-1	3	-1	-1	-1	41	46	-1
28	-1	-1	-1	-1	-1	-1	-1	2	-1	20	-1	-1	8	-1	-1	-1	10	18	16	-1	-1	-1	-1	-1	-1	-1	-1	-1	-1	-1	-1	-1	30	9	6	-1	39	-1	-1	48	-1	-1	-1	13	36	25	34	-1
-1	-1	-1	3	-1	-1	-1	-1	40	37	1	44	13	-1	25	17	26	-1	49	22	-1	-1	-1	20	-1	-1	-1	5	48	-1	12	45	-1	-1	-1	34	-1	8	-1	-1	-1	-1	39	6	29	14	-1	-1	-1
-1	24	8	-1	6	-1	-1	-1	-1	-1	38	-1	-1	21	9	28	19	-1	-1	-1	14	-1	15	-1	-1	30	34	-1	5	-1	20	-1	-1	-1	44	-1	-1	-1	49	-1	-1	-1	-1	-1	-1	-1	-1	-1	4
8	-1	44	-1	47	-1	24	-1	-1	-1	-1	-1	2	-1	-1	27	41	-1	42	21	-1	1	12	5	-1	11	17	-1	-1	18	46	7	23	45	-1	4	16	-1	43	28	-1	-1	38	-1	34	-1	-1	-1	-1
25	-1	-1	-1	-1	-1	-1	-1	4	-1	10	35	6	48	-1	-1	-1	-1	-1	31	34	43	-1	-1	7	37	47	-1	-1	-1	-1	9	-1	17	-1	38	-1	46	-1	18	-1	-1	-1	41	12	28	-1	-1	-1
-1	30	13	20	14	28	-1	-1	-1	-1	-1	40	-1	-1	11	43	45	-1	4	-1	-1	22	-1	-1	21	23	-1	3	-1	38	48	-1	10	-1	2	-1	-1	-1	-1	-1	-1	-1	-1	-1	-1	-1	-1	-1	27
1	-1	-1	35	-1	19	-1	-1	42	-1	-1	-1	-1	-1	37	-1	17	-1	28	23	3	-1	-1	-1	34	-1	-1	-1	-1	16	40	-1	-1	36	-1	-1	25	-1	-1	24	-1	-1	-1	-1	18	-1	-1	-1	48
38	49	-1	17	-1	-1	-1	-1	-1	25	-1	-1	16	-1	-1	-1	-1	-1	1	14	-1	-1	-1	46	-1	-1	24	-1	-1	12	-1	-1	-1	41	37	21	48	5	29	33	-1	-1	22	-1	2	15	-1	-1	-1
-1	34	-1	16	-1	-1	-1	1	17	-1	-1	-1	-1	-1	-1	-1	-1	5	39	-1	-1	-1	-1	42	27	36	14	18	-1	28	-1	-1	33	-1	13	-1	-1	31	11	-1	-1	19	-1	-1	-1	-1	29	32	-1
-1	-1	-1	48	39	7	-1	-1	-1	28	14	22	-1	-1	-1	-1	-1	26	-1	-1	-1	-1	-1	-1	-1	40	-1	-1	4	-1	19	6	-1	-1	-1	-1	-1	-1	-1	-1	-1	23	-1	-1	-1	-1	-1	-1	42
49 
26 49 39 23
6 19 29 20
43 47 44 2
6 46 36 26
1 32 2 22
18 25 4 4
33 14 31 44
45 48 44 10
43 38 10 33
37 5 22 34
14 42 17 19
42 47 45 38
33 5 42 24
34 23 32 3
33 2 39 30
24 23 31 46
34 6 24 13
45 13 30 14
3 40 19 5
47 8 46 29
46 32 8 12
17 49 42 46
19 15 28 38
38 44 27 19
12 13 30 42
40 5 30 40
49 41 13 19
47 23 27 18
18 16 24 14
13 46 49 47
37 40 42 13
17 38 12 11
1 19 30 9
34 24 6 6
31 13 34 19
41 25 47 7
6 24 32 18
5 37 4 44
11 26 9 18
23 38 31 49
5 32 11 29
2 42 10 34
20 18 40 15
19 49 24 2
27 24 49 39
14 15 1 9
6 2 41 3
36 1 15 36
36 22 2 5
